50, 62425
2551, 920
2552, 233
2553, 535
2554, 498
2555, 287
2556, 327
2557, 571
2558, 574
2559, 12
2560, 114
2561, 274
2562, 935
2563, 206
2564, 667
2565, 783
2566, 641
2567, 447
2568, 419
2569, 393
2570, 75
2571, 977
2572, 350
2573, 151
2574, 374
2575, 746
2576, 970
2577, 470
2578, 564
2579, 89
2580, 999
2581, 71
2582, 386
2583, 520
2584, 646
2585, 899
2586, 656
2587, 402
2588, 99
2589, 617
2590, 421
2591, 59
2592, 692
2593, 884
2594, 741
2595, 221
2596, 905
2597, 391
2598, 277
2599, 543
2600, 868
